2531
500000
332838
332838
332838
332838
332838
332838
332838
332838
332711
332711
332711
332711
332711
332711
332711
332711
332711
332623
332623
332623
332623
332623
332623
332623
332623
332623
332623
332623
332623
332623
332623
332623
332623
332623
332623
331425
331222
331222
331222
331222
331222
331222
331222
331222
331222
331222
331222
331222
331222
331222
331222
331222
331222
331222
330078
330078
330078
330078
330078
330078
330078
330078
330078
330078
329251
329251
329251
329251
329251
329251
329251
329251
327497
327349
327349
327349
327349
327349
327349
327349
327349
327349
327349
327349
327349
327349
327349
327334
327334
327334
327334
327334
327334
327334
327334
327334
327334
327334
327334
327334
326976
326976
326976
326976
326976
326976
326976
326976
326976
326976
326891
326891
326891
326891
326891
326891
326891
326891
326891
326891
326891
326891
326891
326891
326891
326891
326891
326891
326891
326891
326380
326380
326380
326380
326380
326380
326380
326380
326380
326380
326380
326380
326380
326380
326380
326380
326380
326380
326380
326097
326097
326097
326097
326097
326097
326097
326097
326097
326097
326097
326097
326097
326097
326097
326097
321904
321904
321904
321904
321904
321904
321904
321904
321904
321904
321904
321904
321904
321904
321904
321904
321904
321904
319507
319507
319507
319507
319507
319507
319507
319507
319507
319507
319507
319507
319507
319507
319507
319468
319468
319468
319468
319468
319468
319468
319468
319468
319468
319468
319468
319468
319468
319468
319468
319468
319431
319431
319431
319431
319431
319431
319431
319431
319431
319431
319431
319431
319431
319431
319431
319056
313883
313883
313627
313627
313627
313627
313627
313627
313627
313627
313627
313627
313627
313627
312646
312646
312646
312417
312417
312417
312417
312417
312417
312417
312417
312417
310321
310321
310321
310321
310321
310321
310246
309597
309597
309597
309597
309597
309597
309597
309597
309597
309597
309597
309597
309597
309597
309597
309041
309041
309041
309041
309041
309041
309041
309041
309041
309041
309041
308829
308829
308829
308829
308829
308829
308829
308829
308829
308829
308829
308829
308829
308829
308829
307346
307346
307346
307346
307346
307346
307346
307346
307346
307346
307346
307346
307346
307346
307346
307346
307346
307048
307048
307048
307048
307048
306209
306209
306209
306209
306209
306209
306209
306209
306209
306209
306129
306129
306129
306129
306129
306129
306129
306129
306129
306129
306129
306129
303982
303982
303982
303982
302243
302243
302243
302243
302243
302243
302243
302243
301087
301087
301087
301087
301087
301087
301087
301087
301087
301087
301087
299893
299893
299893
299893
299893
298917
298917
298917
298917
298917
298917
298917
298586
298586
298586
298586
298586
298586
298586
298586
298586
298586
298586
298586
298586
298586
298586
298586
298586
298586
298586
298586
298439
298439
298439
297909
297909
297909
297909
297261
297261
297261
297261
297261
297261
297261
297261
297261
297261
297261
297261
297261
297261
297261
297261
297261
296779
296779
296142
296039
296039
294704
294704
294704
294704
294704
294704
294704
294704
294704
294704
294704
294704
294040
294040
294040
294040
294040
294040
294040
294040
294040
294040
294040
294040
294040
293158
293158
293158
293158
293065
293065
293065
293065
293065
293065
293065
293065
293065
293065
293065
293065
293065
293065
293065
293065
293065
290342
290342
290342
289870
289870
289870
289870
289870
289870
289870
289870
289870
289870
288833
288833
288833
288833
288833
288681
288681
288681
287393
287393
287393
287393
287393
287393
287393
287393
287393
287393
287393
287393
287393
287393
287393
287108
287108
287108
287108
286183
286183
286183
286183
286183
286183
286183
286183
286183
286183
286183
286183
286183
286183
286183
286183
286183
286183
286180
286180
286180
286180
286180
286180
285703
285703
285703
285703
285703
285703
285703
285703
283952
283572
283572
283572
283572
283572
283572
282984
282984
282984
282984
282983
282983
282983
282983
282983
282983
282068
282068
282068
282068
282068
282068
282068
282068
282068
282068
282068
282068
282068
282068
282068
281090
281090
281090
281090
281090
281090
281090
281090
281090
281090
281090
281090
281090
281090
281090
281090
281090
281090
281090
281090
280904
280904
280904
280904
280904
280904
280904
280904
280904
280904
280904
280904
280695
280695
280695
280695
280695
280695
280587
280587
280587
280587
280587
280587
280587
280587
280587
280587
280587
280587
280086
280086
280086
280086
280086
280086
280086
280086
280086
280086
280086
280022
280022
280022
280022
280022
280022
280022
280022
280022
280022
280022
280022
280022
280022
280022
277492
277492
277492
277492
277492
277492
277492
277492
277492
277492
277492
277492
277492
277492
277492
277492
277492
276526
276526
276526
276526
275016
275016
275016
275016
275016
275016
275016
275016
275016
275016
275016
275016
274948
274948
274948
274948
274948
274948
274948
274948
274948
274948
274948
274948
274948
274948
274948
274948
274948
274597
274597
274597
274301
274301
274301
274301
274301
274301
274301
274301
274301
274301
274301
274119
274119
274119
274119
274119
274119
274119
274119
274119
274119
274119
274119
274119
274119
274119
274119
274119
274119
274029
274029
274029
274029
274029
274029
274029
274029
274029
274029
274029
274029
274029
274029
274029
273494
273494
273494
273494
273494
273494
273494
273494
273494
273494
273362
273362
273362
273362
273362
273362
273362
273362
273362
273362
273362
273362
273362
273000
273000
273000
273000
273000
273000
273000
273000
273000
273000
273000
273000
273000
273000
273000
272403
272403
272403
272403
272403
272403
269886
269886
269886
269886
269886
269886
269886
269886
269886
269886
269886
269886
269886
269886
269886
269886
269886
269886
269575
269575
269575
269575
269575
269575
269575
269575
269575
269575
269575
269575
269575
269311
269311
269311
269311
269311
269311
269311
269311
269311
269311
269311
269311
269311
269311
269311
269311
269311
269311
269311
269311
267517
267517
267517
267517
267517
267517
267517
267517
267517
267517
267517
267517
267517
267517
267517
267517
267517
267517
267517
264163
264163
264163
264163
264163
264163
264163
264163
264163
264163
264163
264024
263351
263351
263351
262177
260494
260494
260494
260494
260038
260038
260038
260038
260038
260007
260007
260007
260007
260007
260007
260007
260007
260007
260007
260007
260007
260007
260007
260007
260007
258099
258099
258099
258099
258099
258099
258099
258099
258099
257879
257879
257879
257879
257879
257879
257879
257879
257879
257879
257879
257879
257649
257649
257649
257649
257649
257649
257455
257455
257455
257455
257455
257455
257455
257455
257455
257455
257455
257455
257455
257455
257455
257455
257455
257455
257455
253911
253911
253911
253911
253911
253911
253911
253911
253911
253911
253911
253911
253911
253911
253911
253911
253911
252498
252498
252498
252308
252308
252308
252308
252308
252308
252308
252308
252308
252308
252308
252308
252308
252308
252308
252308
252308
251847
251847
251652
251652
251652
251652
251652
250672
250672
250672
250672
250672
250672
250672
250672
250672
250672
250672
250672
250672
250672
250672
250672
250672
250672
250672
250425
250425
250425
250425
250425
250425
250425
250425
250425
250425
250425
250425
250425
250374
250374
250374
250374
250374
250374
250374
250374
250374
250374
250374
250374
250374
250374
250374
249805
249805
249805
249805
249805
249805
249805
249805
249805
249805
249805
249805
249805
249805
249805
249805
249805
247936
247936
247936
247936
247472
247472
247472
247472
247472
247472
247472
247472
247472
247472
247472
247472
247472
247472
247472
247472
247472
247472
247472
247472
246343
246343
246343
246343
246343
245934
245934
245934
245934
245934
245934
245934
245934
245934
245454
245454
245454
244889
244889
244889
244889
242903
242903
242903
242903
242903
242903
242903
242903
242903
242366
242366
242366
242366
242366
242366
242366
242366
242366
242366
242366
242366
242366
242366
242366
241737
241737
241737
241737
241737
241737
241737
241737
241737
241737
241157
241157
241157
241157
241157
241157
241157
240910
240910
240910
240910
240910
240465
240465
240465
240465
240465
240465
240465
240465
240465
240465
240465
235789
235789
235789
235789
235291
235291
233678
233678
233678
233678
233678
233678
233678
233678
233678
233678
231109
231109
231109
231109
231109
231109
231109
231109
231109
231109
231109
231109
231109
231109
231109
231109
231109
231109
229958
229958
229958
229958
229958
229958
229958
229958
229958
229958
229958
229958
229958
229958
229958
229958
229958
226989
226989
226369
226369
226369
226369
226369
226369
226369
226369
226369
226369
226369
226369
226369
226369
226369
226369
226173
226173
226173
226173
226173
226173
226173
226173
226173
226173
226173
226127
226127
226127
226127
226127
226127
226127
226127
226127
225507
225507
224963
224963
224963
224963
224963
224963
224963
224963
224963
224813
224813
224813
224813
224813
224813
224813
224813
224813
224813
220434
220434
220434
220434
220434
220434
220434
220434
220434
220434
220434
219970
219970
219970
219970
219970
219970
219970
218888
218888
218888
218888
218888
216798
216798
216798
216798
216798
216798
216798
216798
216687
216687
216687
216687
216687
216687
216687
216687
216687
216687
216687
216687
216687
216687
216687
216687
216687
216687
216687
216439
216439
216439
216439
216439
216439
216439
216439
216439
216439
216439
216439
216439
216439
216439
216439
214337
214337
214337
214337
214337
214337
214337
214337
214337
214337
214337
214337
214337
214337
214337
214337
214337
214337
214337
214337
214164
214164
214164
214164
214164
214164
214164
214164
214164
214164
214164
214164
214164
214164
214164
213529
213529
213529
213529
213529
213529
213529
212538
212538
212538
212538
212538
212538
212411
212411
212411
212411
212411
212411
212411
212411
212411
212411
212411
212411
212411
212411
212411
212411
212411
212411
211343
211343
211343
210513
210513
210513
210513
210513
210513
210513
210513
210513
210513
210513
210513
210513
210513
210513
210513
210513
210513
210327
210327
210327
210327
210327
210327
210327
210154
210154
210154
210154
210154
210154
210154
210154
205486
205486
205486
205486
205486
205486
205486
205486
205486
205486
205486
205486
205486
205486
205486
205486
205486
205486
204466
204466
204466
201573
201573
199429
199429
199429
199429
198106
196848
196848
196848
196848
196848
196848
196429
196429
196429
196429
196429
196429
196429
196429
196429
196429
196429
196210
196210
196210
196210
196210
196210
196210
196210
196210
196210
189584
189584
189584
189584
189584
189584
189584
189584
189584
189584
189584
189584
189355
189355
189355
189355
189355
189355
189355
189355
189355
189355
189355
189355
189355
189355
189355
189355
188782
188782
188782
188782
188782
188782
188715
188715
188715
188715
188715
188715
188715
188715
188715
188715
188715
188450
188450
188450
188450
188450
188450
188450
188450
188450
188450
188450
187398
187398
178491
178491
178491
178491
178491
178030
178030
178030
178030
178030
178030
178030
178030
178030
178030
178030
178030
178030
178030
178030
176960
176960
176960
176113
173424
173424
173424
173424
173424
173424
173424
173424
173424
173424
173185
173185
173185
173185
173185
173185
171050
171050
171050
171050
171050
171050
171050
169711
169711
169711
169711
169711
169711
169711
169711
169711
169711
169711
169711
169711
169711
169711
169711
169711
169711
167889
167889
167889
167889
167889
167889
167770
167770
167770
167770
167770
167770
167770
167770
167770
167770
167770
167770
167770
167770
167770
167770
167770
167770
167770
164815
164815
164815
164815
164815
164815
164165
164165
164165
164165
164165
164165
164165
164015
164015
164015
164015
164015
164015
164015
164015
164015
164015
164015
164015
164015
164015
164015
164015
164015
163492
163492
163492
161379
161379
161379
161379
161379
161379
161379
161379
161379
161379
161379
161379
161379
161379
161379
161379
161379
161379
161379
161379
160779
160779
160779
160779
160779
160779
160779
160779
160779
159158
159158
159158
158882
158882
158882
157900
157900
157900
157900
157900
157900
157900
157900
157900
157900
157900
157900
157900
157900
157900
157900
157900
157235
157235
157235
157235
157235
157235
157235
157235
157235
157235
157235
157235
157235
157235
157235
157235
157235
157235
157235
157235
155977
155977
155977
155977
155977
155977
155977
155977
155977
155977
155977
155977
155977
155977
155977
155977
155977
155977
155977
153894
153894
153894
153894
153894
153894
153894
153894
153894
153894
153894
153171
153171
153171
153171
153171
153171
153171
153171
153171
153171
153171
153171
153171
153171
153171
153171
153171
153171
153171
153171
152995
152995
152995
152995
152995
152995
152995
152995
152995
152995
152995
152995
152995
152317
151503
151503
151503
151503
151503
151503
151503
151503
151503
151503
151503
151503
151503
151503
151503
151503
150566
150566
150566
150566
150566
150566
150566
150566
150566
150566
150566
150566
150566
150566
150566
150566
150566
150566
150366
150366
150366
150366
150366
150366
150366
150366
150366
150366
150366
150366
150366
150366
150366
150366
150366
150366
150366
150366
148847
148847
148847
148847
148847
148847
148847
146309
146309
146309
145173
144579
144579
144579
144579
144579
144579
144579
144579
144579
144579
144579
144579
144579
144579
144579
144579
144579
144579
144490
144490
144490
144490
144490
143894
143894
143894
143894
143894
143894
142356
142356
142356
142356
142356
142356
142356
142356
142356
142356
142356
142356
142356
142356
142356
142356
142356
142356
142356
142356
137832
137832
137832
137832
137832
137832
137832
137832
137832
137832
137832
137832
137832
137832
137832
137832
137832
137832
137832
137832
137760
137760
137760
137760
137760
137760
137760
137760
137760
137760
137760
136343
136343
136343
136343
136343
136309
136309
136309
136309
136309
136309
136309
136309
136309
136309
136309
136309
136309
136309
134367
134367
134367
134367
134367
134367
134367
134367
134367
134367
134022
134022
134022
134022
134022
134022
134022
134022
134022
134022
134022
134022
134022
132924
132924
132924
132924
131921
131921
131921
131921
131921
131921
131921
131921
131921
130953
130953
130953
130953
130953
130953
130953
130953
130953
130953
130953
130953
130953
130373
130373
130373
130373
130373
130373
130373
129777
129777
129777
129777
129777
129777
129777
129777
129777
129777
129777
129777
129777
129777
129777
129777
129777
129777
129168
129168
129168
129168
129168
129168
129168
127613
127613
127613
127613
127613
127613
127613
127613
127613
127613
127613
127613
127613
127613
127613
127613
126324
126324
126324
126324
126324
124959
124959
124959
124959
124959
124959
124959
124959
124959
124959
124959
124959
124959
124959
124959
124959
124959
124959
124074
124074
123115
123115
123115
123115
123115
123115
121622
121622
121622
121622
120190
120190
120190
120190
120190
120190
119652
119652
119652
119030
119030
116443
116443
116443
116443
116443
116443
116443
116443
116443
116443
116443
116443
116443
116443
116443
116443
116443
116443
115816
115816
115816
115816
115816
115816
115816
115816
115816
115816
115816
115816
115816
115816
113974
113974
113974
113974
113974
113974
113974
113974
113974
113974
113974
110664
110664
110664
110664
110664
110533
109981
109981
109981
109981
109981
109981
109981
109981
109981
109480
109480
109480
109480
109480
109480
109480
109480
109480
109480
109480
109480
109480
109480
108671
108671
108671
108671
108671
108671
108671
108671
108671
108671
108671
108671
108671
107975
107975
107975
107975
107975
107975
107975
107975
107975
107975
107975
107975
107975
107975
107975
107975
107975
107975
107975
107474
107474
107474
107474
107474
107474
107474
107474
107474
107474
107474
107474
107474
107474
107474
107474
107474
106029
106029
106029
106029
106029
106029
106029
106029
105697
105697
105697
105697
105697
105697
105697
105697
105697
105697
105697
105697
105697
105697
105697
104930
104930
104930
104930
104930
103043
103043
103043
103043
103043
103043
103043
103043
103043
101010
101010
101010
101010
101010
101010
101010
101010
101010
101010
101010
99333
99333
99333
99333
99333
97363
97363
97363
97363
97363
97363
97363
97363
97363
97363
97363
97363
95715
95715
95715
91309
91309
91309
91309
91309
91309
91309
91309
91309
91309
91309
91309
91309
91309
91309
90591
90591
90591
90591
90591
90591
90591
90271
90271
90271
90271
90271
90271
90271
90271
90271
89141
89141
89141
88910
88910
88910
88910
88910
88910
88910
88910
88910
88910
88910
88910
88910
88910
88910
88910
88910
88910
88910
88910
83997
83997
83997
83997
83997
83997
83997
83997
83997
83997
83997
83997
83997
83131
83131
83131
83131
83131
83131
79065
79065
77284
77284
77284
77284
77284
77284
77284
77284
77284
77284
77284
77284
77284
76124
76124
76124
76124
76124
76124
76124
76124
76124
76124
76124
76124
74199
74199
74199
74199
74199
74199
74199
74199
74199
74199
74199
74199
74199
74199
74199
74199
74172
74172
74172
74172
74172
74172
74172
74172
74172
74172
74172
74172
74172
74172
73371
73371
73371
73371
73371
73371
73371
73371
73371
73371
73371
71163
71163
71163
71163
71163
71163
71163
71163
71163
71163
71163
71163
71163
71163
71163
70428
70428
70428
70428
70428
70428
70428
70428
70428
70428
70428
70428
70428
69657
69657
69657
69188
69188
69188
69188
69188
69188
69188
69188
69188
69188
67726
67726
67726
67726
67726
67726
67726
67726
67726
67726
67726
67726
67726
67726
67726
67726
67726
67726
67726
67193
67193
67193
67193
67193
67193
67193
67193
67193
67193
67193
67193
67193
67193
67193
67193
67193
